Read MPS format model from file dat/rmp/DER_48_16384_40.mps
Reading time = 1.51 seconds
: 16432 rows, 98448 columns, 4272210 nonzeros
Gurobi Optimizer version 9.0.0 build v9.0.0rc2 (linux64)
Optimize a model with 16432 rows, 98448 columns and 4272210 nonzeros
Model fingerprint: 0x8326c5e7
Coefficient statistics:
  Matrix range     [1e-13, 1e+01]
  Objective range  [3e-01, 1e+03]
  Bounds range     [1e+05, 1e+05]
  RHS range        [1e+00, 1e+00]
Ordering time: 0.02s

Barrier statistics:
 AA' NZ     : 7.480e+05
 Factor NZ  : 9.370e+05 (roughly 50 MBytes of memory)
 Factor Ops : 5.521e+07 (less than 1 second per iteration)
 Threads    : 1

                  Objective                Residual
Iter       Primal          Dual         Primal    Dual     Compl     Time
   0   1.97298266e+09 -1.54238170e+08  9.14e+07 1.25e-02  5.46e+05     1s
   1   3.13598220e+07 -2.21947995e+07  1.25e+06 5.46e-12  7.74e+03     1s
   2   2.70506819e+06 -9.83712865e+06  1.06e+05 3.64e-12  7.39e+02     2s
   3   6.72888027e+04 -6.32943432e+06  6.10e+02 2.96e-12  6.80e+01     2s
   4   4.90308039e+04  1.02100669e+04  4.56e-10 3.64e-12  3.94e-01     2s
   5   4.87710964e+04  4.18824877e+04  3.92e-10 3.64e-12  6.99e-02     2s
   6   4.84327079e+04  4.65598091e+04  4.03e-10 3.64e-12  1.90e-02     3s
   7   4.81659620e+04  4.75299603e+04  9.01e-10 2.73e-12  6.46e-03     3s
   8   4.79617847e+04  4.77712251e+04  7.26e-10 3.64e-12  1.93e-03     3s
   9   4.78966148e+04  4.78132740e+04  1.60e-09 5.46e-12  8.46e-04     4s
  10   4.78591172e+04  4.78422999e+04  1.69e-09 3.64e-12  1.71e-04     4s
  11   4.78532185e+04  4.78448470e+04  3.33e-09 3.64e-12  8.50e-05     4s
  12   4.78519309e+04  4.78458729e+04  2.45e-09 3.64e-12  6.15e-05     5s
  13   4.78510753e+04  4.78466635e+04  3.36e-09 1.82e-12  4.48e-05     5s
  14   4.78502395e+04  4.78477288e+04  3.48e-09 3.64e-12  2.55e-05     5s
  15   4.78496158e+04  4.78481734e+04  4.06e-09 1.82e-12  1.46e-05     6s
  16   4.78492363e+04  4.78484416e+04  7.54e-09 1.82e-12  8.07e-06     6s
  17   4.78490331e+04  4.78485764e+04  9.23e-09 3.64e-12  4.64e-06     6s
  18   4.78488853e+04  4.78486747e+04  1.81e-08 1.82e-12  2.14e-06     7s
  19   4.78487822e+04  4.78487028e+04  4.93e-08 2.93e-12  8.07e-07     7s
  20   4.78487505e+04  4.78487125e+04  1.23e-07 1.82e-12  3.86e-07     8s
  21   4.78487217e+04  4.78487174e+04  4.13e-07 3.64e-12  4.35e-08     8s
  22   4.78487192e+04  4.78487184e+04  1.14e-06 2.73e-12  7.43e-09     8s
  23   4.78487188e+04  4.78487186e+04  2.94e-06 3.64e-12  1.87e-09     8s
  24   4.78487186e+04  4.78487186e+04  1.21e-05 5.46e-12  1.77e-10     9s
  25   4.78487186e+04  4.78487186e+04  1.69e-05 2.73e-12  1.96e-12     9s
  26   4.78487186e+04  4.78487186e+04  4.76e-06 5.46e-12  5.79e-17     9s
  27   4.78487186e+04  4.78487186e+04  5.26e-10 3.64e-12  5.79e-23     9s

Barrier solved model in 27 iterations and 9.27 seconds
Optimal objective 4.78487186e+04

Solve time: 9.276063083
Barrier iterations: 27
